c DCNF-Autarky [version 0.0.1]. 
c Copyright (c) 2018-2019 Swansea University. 
c 
c Input QBF/DQBF path: Castellini18//toilet_c_08_01.13.qdimacs
c Output SAT Translation Path: /tmp/toilet_c_08_01.13.qdimacs-dcnfAutarky.dimacs
c Input Clause Count (tautology free): 1461
c
c Performing E1-Autarky iteration.
c Remaining clauses count after E-Reduction: 1425
c
c Performing A1-Autarky iteration.
c Running Lingeling ... 
c
c Remaining clauses count after A-Reduction: 1425
c
c Input Parameter (command line, file): 
c input filename   Castellini18//toilet_c_08_01.13.qdimacs
c output filename  /tmp/toilet_c_08_01.13.qdimacs-dcnfAutarky.dimacs
c autarky level    1
c conformity level 0
c encoding type    2
c no.of var        341
c no.of clauses    1461
c no.of taut cls   0
c 
c Output Parameters: 
c remaining no.of clauses  1425
c
c filename pn pc autarky ntaut rpa rpe rpcdiff result
c "Castellini18//toilet_c_08_01.13.qdimacs" 341 1461 "E1+A1" 0 3 329 36 "RED" 
p cnf 341 1425
e 197 198 199 200 201 202 203 204 205 206 207 208 209 210 211 212 213 214 215 216 217 218 219 220 221 222 223 224 225 226 227 228 229 230 231 232 233 234 235 236 237 238 239 240 241 242 243 244 245 246 247 248 249 250 251 252 253 254 255 256 257 258 259 260 261 262 263 264 265 266 267 268 269 270 271 272 273 274 275 276 277 278 279 280 281 282 283 284 285 286 287 288 289 290 291 292 293 294 295 296 297 298 299 300 301 302 303 304 305 306 307 308 309 310 311 312 313 0
a 323 322 324 0
e 1 2 3 4 5 6 7 8 9 10 11 12 13 14 15 16 17 18 19 20 21 22 23 24 25 26 27 28 29 30 31 32 33 34 35 36 37 38 39 40 41 42 43 44 45 46 47 48 49 50 51 52 53 54 55 56 57 58 59 60 61 62 63 64 65 66 67 68 69 70 71 72 73 74 75 76 77 78 79 80 81 82 83 84 85 86 87 88 89 90 91 92 93 94 95 96 97 98 99 100 101 102 103 104 105 106 107 108 109 110 111 112 113 114 115 116 117 118 119 120 121 122 123 124 125 126 127 128 129 130 131 132 133 134 135 136 137 138 139 140 141 142 143 144 145 146 147 148 149 150 151 152 153 154 155 156 157 158 159 160 161 162 163 164 165 166 167 168 169 170 171 172 173 174 175 176 177 178 179 180 181 182 183 184 185 186 187 188 189 190 191 192 193 194 195 196 314 315 316 317 318 319 320 321 325 326 327 328 329 330 331 332 333 334 335 336 337 338 339 340 341 0
-322 -323 -325 324 0
-322 -323 -326 324 0
-322 -323 -327 324 0
-322 -323 -328 324 0
-322 -323 -329 324 0
-322 -323 324 330 0
-322 -323 -331 324 0
-322 -323 -332 324 0
-323 -324 -325 322 0
-323 -324 -326 322 0
-323 -324 -327 322 0
-323 -324 -328 322 0
-323 -324 322 329 0
-323 -324 -330 322 0
-323 -324 -331 322 0
-323 -324 -332 322 0
-323 -325 322 324 0
-323 -326 322 324 0
-323 -327 322 324 0
-323 322 324 328 0
-323 -329 322 324 0
-323 -330 322 324 0
-323 -331 322 324 0
-323 -332 322 324 0
-322 -324 -325 323 0
-322 -324 -326 323 0
-322 -324 323 327 0
-322 -324 -328 323 0
-322 -324 -329 323 0
-322 -324 -330 323 0
-322 -324 -331 323 0
-322 -324 -332 323 0
-322 -325 323 324 0
-322 323 324 326 0
-322 -327 323 324 0
-322 -328 323 324 0
-322 -329 323 324 0
-322 -330 323 324 0
-322 -331 323 324 0
-322 -332 323 324 0
-324 322 323 325 0
-324 -326 322 323 0
-324 -327 322 323 0
-324 -328 322 323 0
-324 -329 322 323 0
-324 -330 322 323 0
-324 -331 322 323 0
-324 -332 322 323 0
-325 322 323 324 0
-326 322 323 324 0
-327 322 323 324 0
-328 322 323 324 0
-329 322 323 324 0
-330 322 323 324 0
-331 322 323 324 0
322 323 324 332 0
-322 -323 -324 -325 0
-322 -323 -324 -326 0
-322 -323 -324 -327 0
-322 -323 -324 -328 0
-322 -323 -324 -329 0
-322 -323 -324 -330 0
-322 -323 -324 331 0
-322 -323 -324 -332 0
-333 0
-334 0
-335 0
-336 0
-337 0
-338 0
-339 0
-340 0
-341 0
-197 -341 0
-197 -333 0
-13 -198 0
-1 -198 0
-14 -199 0
-2 -199 0
-15 -200 0
-3 -200 0
-16 -201 0
-4 -201 0
-17 -202 0
-5 -202 0
-18 -203 0
-6 -203 0
-19 -204 0
-7 -204 0
-20 -205 0
-8 -205 0
-21 -206 0
-9 -206 0
-22 -207 0
-10 -207 0
-23 -208 0
-11 -208 0
-210 -334 0
-210 -341 0
-36 -211 0
-13 -211 0
-37 -212 0
-14 -212 0
-38 -213 0
-15 -213 0
-39 -214 0
-16 -214 0
-40 -215 0
-17 -215 0
-41 -216 0
-18 -216 0
-42 -217 0
-19 -217 0
-43 -218 0
-20 -218 0
-44 -219 0
-21 -219 0
-45 -220 0
-22 -220 0
-46 -221 0
-23 -221 0
-223 -335 0
-223 -341 0
-59 -224 0
-13 -224 0
-60 -225 0
-14 -225 0
-61 -226 0
-15 -226 0
-62 -227 0
-16 -227 0
-63 -228 0
-17 -228 0
-64 -229 0
-18 -229 0
-65 -230 0
-19 -230 0
-66 -231 0
-20 -231 0
-67 -232 0
-21 -232 0
-68 -233 0
-22 -233 0
-69 -234 0
-23 -234 0
-236 -336 0
-236 -341 0
-82 -237 0
-13 -237 0
-83 -238 0
-14 -238 0
-84 -239 0
-15 -239 0
-85 -240 0
-16 -240 0
-86 -241 0
-17 -241 0
-87 -242 0
-18 -242 0
-88 -243 0
-19 -243 0
-89 -244 0
-20 -244 0
-90 -245 0
-21 -245 0
-91 -246 0
-22 -246 0
-92 -247 0
-23 -247 0
-249 -337 0
-249 -341 0
-105 -250 0
-13 -250 0
-106 -251 0
-14 -251 0
-107 -252 0
-15 -252 0
-108 -253 0
-16 -253 0
-109 -254 0
-17 -254 0
-110 -255 0
-18 -255 0
-111 -256 0
-19 -256 0
-112 -257 0
-20 -257 0
-113 -258 0
-21 -258 0
-114 -259 0
-22 -259 0
-115 -260 0
-23 -260 0
-262 -338 0
-262 -341 0
-128 -263 0
-13 -263 0
-129 -264 0
-14 -264 0
-130 -265 0
-15 -265 0
-131 -266 0
-16 -266 0
-132 -267 0
-17 -267 0
-133 -268 0
-18 -268 0
-134 -269 0
-19 -269 0
-135 -270 0
-20 -270 0
-136 -271 0
-21 -271 0
-137 -272 0
-22 -272 0
-138 -273 0
-23 -273 0
-275 -339 0
-275 -341 0
-151 -276 0
-13 -276 0
-152 -277 0
-14 -277 0
-153 -278 0
-15 -278 0
-154 -279 0
-16 -279 0
-155 -280 0
-17 -280 0
-156 -281 0
-18 -281 0
-157 -282 0
-19 -282 0
-158 -283 0
-20 -283 0
-159 -284 0
-21 -284 0
-160 -285 0
-22 -285 0
-161 -286 0
-23 -286 0
-288 -340 0
-288 -341 0
-174 -290 0
-13 -290 0
-175 -292 0
-14 -292 0
-176 -294 0
-15 -294 0
-177 -296 0
-16 -296 0
-178 -298 0
-17 -298 0
-179 -300 0
-18 -300 0
-180 -302 0
-19 -302 0
-181 -304 0
-20 -304 0
-182 -306 0
-21 -306 0
-183 -308 0
-22 -308 0
-184 -310 0
-23 -310 0
-289 341 0
-291 13 0
-293 14 0
-295 15 0
-297 16 0
-299 17 0
-301 18 0
-303 19 0
-305 20 0
-307 21 0
-309 22 0
-311 23 0
-197 13 0
-25 -197 0
-197 1 0
-198 14 0
-26 -198 0
-198 2 0
-199 15 0
-27 -199 0
-199 3 0
-200 16 0
-28 -200 0
-200 4 0
-201 17 0
-29 -201 0
-201 5 0
-202 18 0
-30 -202 0
-202 6 0
-203 19 0
-31 -203 0
-203 7 0
-204 20 0
-32 -204 0
-204 8 0
-205 21 0
-33 -205 0
-205 9 0
-206 22 0
-34 -206 0
-206 10 0
-207 23 0
-35 -207 0
-207 11 0
-208 24 0
-208 -314 0
-208 12 0
-210 36 0
-48 -210 0
-210 13 0
-211 37 0
-49 -211 0
-211 14 0
-212 38 0
-50 -212 0
-212 15 0
-213 39 0
-51 -213 0
-213 16 0
-214 40 0
-52 -214 0
-214 17 0
-215 41 0
-53 -215 0
-215 18 0
-216 42 0
-54 -216 0
-216 19 0
-217 43 0
-55 -217 0
-217 20 0
-218 44 0
-56 -218 0
-218 21 0
-219 45 0
-57 -219 0
-219 22 0
-220 46 0
-58 -220 0
-220 23 0
-221 47 0
-221 -315 0
-221 24 0
-223 59 0
-71 -223 0
-223 13 0
-224 60 0
-72 -224 0
-224 14 0
-225 61 0
-73 -225 0
-225 15 0
-226 62 0
-74 -226 0
-226 16 0
-227 63 0
-75 -227 0
-227 17 0
-228 64 0
-76 -228 0
-228 18 0
-229 65 0
-77 -229 0
-229 19 0
-230 66 0
-78 -230 0
-230 20 0
-231 67 0
-79 -231 0
-231 21 0
-232 68 0
-80 -232 0
-232 22 0
-233 69 0
-81 -233 0
-233 23 0
-234 70 0
-234 -316 0
-234 24 0
-236 82 0
-94 -236 0
-236 13 0
-237 83 0
-95 -237 0
-237 14 0
-238 84 0
-96 -238 0
-238 15 0
-239 85 0
-97 -239 0
-239 16 0
-240 86 0
-98 -240 0
-240 17 0
-241 87 0
-99 -241 0
-241 18 0
-242 88 0
-100 -242 0
-242 19 0
-243 89 0
-101 -243 0
-243 20 0
-244 90 0
-102 -244 0
-244 21 0
-245 91 0
-103 -245 0
-245 22 0
-246 92 0
-104 -246 0
-246 23 0
-247 93 0
-247 -317 0
-247 24 0
-249 105 0
-117 -249 0
-249 13 0
-250 106 0
-118 -250 0
-250 14 0
-251 107 0
-119 -251 0
-251 15 0
-252 108 0
-120 -252 0
-252 16 0
-253 109 0
-121 -253 0
-253 17 0
-254 110 0
-122 -254 0
-254 18 0
-255 111 0
-123 -255 0
-255 19 0
-256 112 0
-124 -256 0
-256 20 0
-257 113 0
-125 -257 0
-257 21 0
-258 114 0
-126 -258 0
-258 22 0
-259 115 0
-127 -259 0
-259 23 0
-260 116 0
-260 -318 0
-260 24 0
-262 128 0
-140 -262 0
-262 13 0
-263 129 0
-141 -263 0
-263 14 0
-264 130 0
-142 -264 0
-264 15 0
-265 131 0
-143 -265 0
-265 16 0
-266 132 0
-144 -266 0
-266 17 0
-267 133 0
-145 -267 0
-267 18 0
-268 134 0
-146 -268 0
-268 19 0
-269 135 0
-147 -269 0
-269 20 0
-270 136 0
-148 -270 0
-270 21 0
-271 137 0
-149 -271 0
-271 22 0
-272 138 0
-150 -272 0
-272 23 0
-273 139 0
-273 -319 0
-273 24 0
-275 151 0
-163 -275 0
-275 13 0
-276 152 0
-164 -276 0
-276 14 0
-277 153 0
-165 -277 0
-277 15 0
-278 154 0
-166 -278 0
-278 16 0
-279 155 0
-167 -279 0
-279 17 0
-280 156 0
-168 -280 0
-280 18 0
-281 157 0
-169 -281 0
-281 19 0
-282 158 0
-170 -282 0
-282 20 0
-283 159 0
-171 -283 0
-283 21 0
-284 160 0
-172 -284 0
-284 22 0
-285 161 0
-173 -285 0
-285 23 0
-286 162 0
-286 -320 0
-286 24 0
-288 174 0
-186 -288 0
-288 13 0
-290 175 0
-187 -290 0
-290 14 0
-292 176 0
-188 -292 0
-292 15 0
-294 177 0
-189 -294 0
-294 16 0
-296 178 0
-190 -296 0
-296 17 0
-298 179 0
-191 -298 0
-298 18 0
-300 180 0
-192 -300 0
-300 19 0
-302 181 0
-193 -302 0
-302 20 0
-304 182 0
-194 -304 0
-304 21 0
-306 183 0
-195 -306 0
-306 22 0
-308 184 0
-196 -308 0
-308 23 0
-310 185 0
-310 -321 0
-310 24 0
-13 -289 0
-14 -291 0
-15 -293 0
-16 -295 0
-17 -297 0
-18 -299 0
-19 -301 0
-20 -303 0
-21 -305 0
-22 -307 0
-23 -309 0
-24 -311 0
-1 197 333 0
-2 1 198 0
-3 2 199 0
-4 3 200 0
-5 4 201 0
-6 5 202 0
-7 6 203 0
-8 7 204 0
-9 8 205 0
-10 9 206 0
-11 10 207 0
-12 11 208 0
-333 1 0
-1 2 0
-2 3 0
-3 4 0
-4 5 0
-5 6 0
-6 7 0
-7 8 0
-8 9 0
-9 10 0
-10 11 0
-11 12 0
-13 197 210 223 236 249 262 275 288 341 0
-14 13 198 211 224 237 250 263 276 290 0
-15 14 199 212 225 238 251 264 277 292 0
-16 15 200 213 226 239 252 265 278 294 0
-17 16 201 214 227 240 253 266 279 296 0
-18 17 202 215 228 241 254 267 280 298 0
-19 18 203 216 229 242 255 268 281 300 0
-20 19 204 217 230 243 256 269 282 302 0
-21 20 205 218 231 244 257 270 283 304 0
-22 21 206 219 232 245 258 271 284 306 0
-23 22 207 220 233 246 259 272 285 308 0
-24 23 208 221 234 247 260 273 286 310 0
-341 13 289 0
-13 14 291 0
-14 15 293 0
-15 16 295 0
-16 17 297 0
-17 18 299 0
-18 19 301 0
-19 20 303 0
-20 21 305 0
-21 22 307 0
-22 23 309 0
-23 24 311 0
-25 332 0
-26 25 0
-27 26 0
-28 27 0
-29 28 0
-30 29 0
-31 30 0
-32 31 0
-33 32 0
-34 33 0
-35 34 0
-314 35 0
-332 25 197 0
-25 26 198 0
-26 27 199 0
-27 28 200 0
-28 29 201 0
-29 30 202 0
-30 31 203 0
-31 32 204 0
-32 33 205 0
-33 34 206 0
-34 35 207 0
-35 208 314 0
-36 210 334 0
-37 36 211 0
-38 37 212 0
-39 38 213 0
-40 39 214 0
-41 40 215 0
-42 41 216 0
-43 42 217 0
-44 43 218 0
-45 44 219 0
-46 45 220 0
-47 46 221 0
-334 36 0
-36 37 0
-37 38 0
-38 39 0
-39 40 0
-40 41 0
-41 42 0
-42 43 0
-43 44 0
-44 45 0
-45 46 0
-46 47 0
-48 325 0
-49 48 0
-50 49 0
-51 50 0
-52 51 0
-53 52 0
-54 53 0
-55 54 0
-56 55 0
-57 56 0
-58 57 0
-315 58 0
-325 48 210 0
-48 49 211 0
-49 50 212 0
-50 51 213 0
-51 52 214 0
-52 53 215 0
-53 54 216 0
-54 55 217 0
-55 56 218 0
-56 57 219 0
-57 58 220 0
-58 221 315 0
-59 223 335 0
-60 59 224 0
-61 60 225 0
-62 61 226 0
-63 62 227 0
-64 63 228 0
-65 64 229 0
-66 65 230 0
-67 66 231 0
-68 67 232 0
-69 68 233 0
-70 69 234 0
-335 59 0
-59 60 0
-60 61 0
-61 62 0
-62 63 0
-63 64 0
-64 65 0
-65 66 0
-66 67 0
-67 68 0
-68 69 0
-69 70 0
-71 326 0
-72 71 0
-73 72 0
-74 73 0
-75 74 0
-76 75 0
-77 76 0
-78 77 0
-79 78 0
-80 79 0
-81 80 0
-316 81 0
-326 71 223 0
-71 72 224 0
-72 73 225 0
-73 74 226 0
-74 75 227 0
-75 76 228 0
-76 77 229 0
-77 78 230 0
-78 79 231 0
-79 80 232 0
-80 81 233 0
-81 234 316 0
-82 236 336 0
-83 82 237 0
-84 83 238 0
-85 84 239 0
-86 85 240 0
-87 86 241 0
-88 87 242 0
-89 88 243 0
-90 89 244 0
-91 90 245 0
-92 91 246 0
-93 92 247 0
-336 82 0
-82 83 0
-83 84 0
-84 85 0
-85 86 0
-86 87 0
-87 88 0
-88 89 0
-89 90 0
-90 91 0
-91 92 0
-92 93 0
-94 327 0
-95 94 0
-96 95 0
-97 96 0
-98 97 0
-99 98 0
-100 99 0
-101 100 0
-102 101 0
-103 102 0
-104 103 0
-317 104 0
-327 94 236 0
-94 95 237 0
-95 96 238 0
-96 97 239 0
-97 98 240 0
-98 99 241 0
-99 100 242 0
-100 101 243 0
-101 102 244 0
-102 103 245 0
-103 104 246 0
-104 247 317 0
-105 249 337 0
-106 105 250 0
-107 106 251 0
-108 107 252 0
-109 108 253 0
-110 109 254 0
-111 110 255 0
-112 111 256 0
-113 112 257 0
-114 113 258 0
-115 114 259 0
-116 115 260 0
-337 105 0
-105 106 0
-106 107 0
-107 108 0
-108 109 0
-109 110 0
-110 111 0
-111 112 0
-112 113 0
-113 114 0
-114 115 0
-115 116 0
-117 328 0
-118 117 0
-119 118 0
-120 119 0
-121 120 0
-122 121 0
-123 122 0
-124 123 0
-125 124 0
-126 125 0
-127 126 0
-318 127 0
-328 117 249 0
-117 118 250 0
-118 119 251 0
-119 120 252 0
-120 121 253 0
-121 122 254 0
-122 123 255 0
-123 124 256 0
-124 125 257 0
-125 126 258 0
-126 127 259 0
-127 260 318 0
-128 262 338 0
-129 128 263 0
-130 129 264 0
-131 130 265 0
-132 131 266 0
-133 132 267 0
-134 133 268 0
-135 134 269 0
-136 135 270 0
-137 136 271 0
-138 137 272 0
-139 138 273 0
-338 128 0
-128 129 0
-129 130 0
-130 131 0
-131 132 0
-132 133 0
-133 134 0
-134 135 0
-135 136 0
-136 137 0
-137 138 0
-138 139 0
-140 329 0
-141 140 0
-142 141 0
-143 142 0
-144 143 0
-145 144 0
-146 145 0
-147 146 0
-148 147 0
-149 148 0
-150 149 0
-319 150 0
-329 140 262 0
-140 141 263 0
-141 142 264 0
-142 143 265 0
-143 144 266 0
-144 145 267 0
-145 146 268 0
-146 147 269 0
-147 148 270 0
-148 149 271 0
-149 150 272 0
-150 273 319 0
-151 275 339 0
-152 151 276 0
-153 152 277 0
-154 153 278 0
-155 154 279 0
-156 155 280 0
-157 156 281 0
-158 157 282 0
-159 158 283 0
-160 159 284 0
-161 160 285 0
-162 161 286 0
-339 151 0
-151 152 0
-152 153 0
-153 154 0
-154 155 0
-155 156 0
-156 157 0
-157 158 0
-158 159 0
-159 160 0
-160 161 0
-161 162 0
-163 330 0
-164 163 0
-165 164 0
-166 165 0
-167 166 0
-168 167 0
-169 168 0
-170 169 0
-171 170 0
-172 171 0
-173 172 0
-320 173 0
-330 163 275 0
-163 164 276 0
-164 165 277 0
-165 166 278 0
-166 167 279 0
-167 168 280 0
-168 169 281 0
-169 170 282 0
-170 171 283 0
-171 172 284 0
-172 173 285 0
-173 286 320 0
-174 288 340 0
-175 174 290 0
-176 175 292 0
-177 176 294 0
-178 177 296 0
-179 178 298 0
-180 179 300 0
-181 180 302 0
-182 181 304 0
-183 182 306 0
-184 183 308 0
-185 184 310 0
-340 174 0
-174 175 0
-175 176 0
-176 177 0
-177 178 0
-178 179 0
-179 180 0
-180 181 0
-181 182 0
-182 183 0
-183 184 0
-184 185 0
-186 331 0
-187 186 0
-188 187 0
-189 188 0
-190 189 0
-191 190 0
-192 191 0
-193 192 0
-194 193 0
-195 194 0
-196 195 0
-321 196 0
-331 186 288 0
-186 187 290 0
-187 188 292 0
-188 189 294 0
-189 190 296 0
-190 191 298 0
-191 192 300 0
-192 193 302 0
-193 194 304 0
-194 195 306 0
-195 196 308 0
-196 310 321 0
-197 -210 0
-198 -211 0
-199 -212 0
-200 -213 0
-201 -214 0
-202 -215 0
-203 -216 0
-204 -217 0
-205 -218 0
-206 -219 0
-207 -220 0
-208 -221 0
-197 -223 0
-198 -224 0
-199 -225 0
-200 -226 0
-201 -227 0
-202 -228 0
-203 -229 0
-204 -230 0
-205 -231 0
-206 -232 0
-207 -233 0
-208 -234 0
-197 -236 0
-198 -237 0
-199 -238 0
-200 -239 0
-201 -240 0
-202 -241 0
-203 -242 0
-204 -243 0
-205 -244 0
-206 -245 0
-207 -246 0
-208 -247 0
-197 -249 0
-198 -250 0
-199 -251 0
-200 -252 0
-201 -253 0
-202 -254 0
-203 -255 0
-204 -256 0
-205 -257 0
-206 -258 0
-207 -259 0
-208 -260 0
-197 -262 0
-198 -263 0
-199 -264 0
-200 -265 0
-201 -266 0
-202 -267 0
-203 -268 0
-204 -269 0
-205 -270 0
-206 -271 0
-207 -272 0
-208 -273 0
-197 -275 0
-198 -276 0
-199 -277 0
-200 -278 0
-201 -279 0
-202 -280 0
-203 -281 0
-204 -282 0
-205 -283 0
-206 -284 0
-207 -285 0
-208 -286 0
-197 -288 0
-198 -290 0
-199 -292 0
-200 -294 0
-201 -296 0
-202 -298 0
-203 -300 0
-204 -302 0
-205 -304 0
-206 -306 0
-207 -308 0
-208 -310 0
-197 -289 0
-198 -291 0
-199 -293 0
-200 -295 0
-201 -297 0
-202 -299 0
-203 -301 0
-204 -303 0
-205 -305 0
-206 -307 0
-207 -309 0
-208 -311 0
-210 -223 0
-211 -224 0
-212 -225 0
-213 -226 0
-214 -227 0
-215 -228 0
-216 -229 0
-217 -230 0
-218 -231 0
-219 -232 0
-220 -233 0
-221 -234 0
-210 -236 0
-211 -237 0
-212 -238 0
-213 -239 0
-214 -240 0
-215 -241 0
-216 -242 0
-217 -243 0
-218 -244 0
-219 -245 0
-220 -246 0
-221 -247 0
-210 -249 0
-211 -250 0
-212 -251 0
-213 -252 0
-214 -253 0
-215 -254 0
-216 -255 0
-217 -256 0
-218 -257 0
-219 -258 0
-220 -259 0
-221 -260 0
-210 -262 0
-211 -263 0
-212 -264 0
-213 -265 0
-214 -266 0
-215 -267 0
-216 -268 0
-217 -269 0
-218 -270 0
-219 -271 0
-220 -272 0
-221 -273 0
-210 -275 0
-211 -276 0
-212 -277 0
-213 -278 0
-214 -279 0
-215 -280 0
-216 -281 0
-217 -282 0
-218 -283 0
-219 -284 0
-220 -285 0
-221 -286 0
-210 -288 0
-211 -290 0
-212 -292 0
-213 -294 0
-214 -296 0
-215 -298 0
-216 -300 0
-217 -302 0
-218 -304 0
-219 -306 0
-220 -308 0
-221 -310 0
-210 -289 0
-211 -291 0
-212 -293 0
-213 -295 0
-214 -297 0
-215 -299 0
-216 -301 0
-217 -303 0
-218 -305 0
-219 -307 0
-220 -309 0
-221 -311 0
-223 -236 0
-224 -237 0
-225 -238 0
-226 -239 0
-227 -240 0
-228 -241 0
-229 -242 0
-230 -243 0
-231 -244 0
-232 -245 0
-233 -246 0
-234 -247 0
-223 -249 0
-224 -250 0
-225 -251 0
-226 -252 0
-227 -253 0
-228 -254 0
-229 -255 0
-230 -256 0
-231 -257 0
-232 -258 0
-233 -259 0
-234 -260 0
-223 -262 0
-224 -263 0
-225 -264 0
-226 -265 0
-227 -266 0
-228 -267 0
-229 -268 0
-230 -269 0
-231 -270 0
-232 -271 0
-233 -272 0
-234 -273 0
-223 -275 0
-224 -276 0
-225 -277 0
-226 -278 0
-227 -279 0
-228 -280 0
-229 -281 0
-230 -282 0
-231 -283 0
-232 -284 0
-233 -285 0
-234 -286 0
-223 -288 0
-224 -290 0
-225 -292 0
-226 -294 0
-227 -296 0
-228 -298 0
-229 -300 0
-230 -302 0
-231 -304 0
-232 -306 0
-233 -308 0
-234 -310 0
-223 -289 0
-224 -291 0
-225 -293 0
-226 -295 0
-227 -297 0
-228 -299 0
-229 -301 0
-230 -303 0
-231 -305 0
-232 -307 0
-233 -309 0
-234 -311 0
-236 -249 0
-237 -250 0
-238 -251 0
-239 -252 0
-240 -253 0
-241 -254 0
-242 -255 0
-243 -256 0
-244 -257 0
-245 -258 0
-246 -259 0
-247 -260 0
-236 -262 0
-237 -263 0
-238 -264 0
-239 -265 0
-240 -266 0
-241 -267 0
-242 -268 0
-243 -269 0
-244 -270 0
-245 -271 0
-246 -272 0
-247 -273 0
-236 -275 0
-237 -276 0
-238 -277 0
-239 -278 0
-240 -279 0
-241 -280 0
-242 -281 0
-243 -282 0
-244 -283 0
-245 -284 0
-246 -285 0
-247 -286 0
-236 -288 0
-237 -290 0
-238 -292 0
-239 -294 0
-240 -296 0
-241 -298 0
-242 -300 0
-243 -302 0
-244 -304 0
-245 -306 0
-246 -308 0
-247 -310 0
-236 -289 0
-237 -291 0
-238 -293 0
-239 -295 0
-240 -297 0
-241 -299 0
-242 -301 0
-243 -303 0
-244 -305 0
-245 -307 0
-246 -309 0
-247 -311 0
-249 -262 0
-250 -263 0
-251 -264 0
-252 -265 0
-253 -266 0
-254 -267 0
-255 -268 0
-256 -269 0
-257 -270 0
-258 -271 0
-259 -272 0
-260 -273 0
-249 -275 0
-250 -276 0
-251 -277 0
-252 -278 0
-253 -279 0
-254 -280 0
-255 -281 0
-256 -282 0
-257 -283 0
-258 -284 0
-259 -285 0
-260 -286 0
-249 -288 0
-250 -290 0
-251 -292 0
-252 -294 0
-253 -296 0
-254 -298 0
-255 -300 0
-256 -302 0
-257 -304 0
-258 -306 0
-259 -308 0
-260 -310 0
-249 -289 0
-250 -291 0
-251 -293 0
-252 -295 0
-253 -297 0
-254 -299 0
-255 -301 0
-256 -303 0
-257 -305 0
-258 -307 0
-259 -309 0
-260 -311 0
-262 -275 0
-263 -276 0
-264 -277 0
-265 -278 0
-266 -279 0
-267 -280 0
-268 -281 0
-269 -282 0
-270 -283 0
-271 -284 0
-272 -285 0
-273 -286 0
-262 -288 0
-263 -290 0
-264 -292 0
-265 -294 0
-266 -296 0
-267 -298 0
-268 -300 0
-269 -302 0
-270 -304 0
-271 -306 0
-272 -308 0
-273 -310 0
-262 -289 0
-263 -291 0
-264 -293 0
-265 -295 0
-266 -297 0
-267 -299 0
-268 -301 0
-269 -303 0
-270 -305 0
-271 -307 0
-272 -309 0
-273 -311 0
-275 -288 0
-276 -290 0
-277 -292 0
-278 -294 0
-279 -296 0
-280 -298 0
-281 -300 0
-282 -302 0
-283 -304 0
-284 -306 0
-285 -308 0
-286 -310 0
-275 -289 0
-276 -291 0
-277 -293 0
-278 -295 0
-279 -297 0
-280 -299 0
-281 -301 0
-282 -303 0
-283 -305 0
-284 -307 0
-285 -309 0
-286 -311 0
-288 -289 0
-290 -291 0
-292 -293 0
-294 -295 0
-296 -297 0
-298 -299 0
-300 -301 0
-302 -303 0
-304 -305 0
-306 -307 0
-308 -309 0
-310 -311 0
-314 0
-315 0
-316 0
-317 0
-318 0
-319 0
-320 0
-321 0
